31661 41620 
32645 41306 
31627 41648 
31985 41559 
31912 41594 
32270 41505 
32739 41257 
31721 41599 
32385 41434 
32922 41220 
33047 41139 
33305 40988 
33440 40921 
31125 41714 
33825 40670 
34844 39987 
33901 40640 
34420 40344 
33475 40896 
33948 40631 
34036 40573 
32956 41192 
33565 40863 
35168 39763 
34938 39928 
32477 41427 
32077 41552 
